; benchmark generated from python API
(set-info :status unknown)
(declare-fun cell_1_6 () Int)
(declare-fun cell_1_8 () Int)
(declare-fun cell_2_7 () Int)
(declare-fun cell_3_3 () Int)
(declare-fun cell_4_4 () Int)
(declare-fun cell_5_8 () Int)
(declare-fun cell_6_1 () Int)
(declare-fun cell_7_9 () Int)
(declare-fun cell_8_2 () Int)
(declare-fun cell_9_5 () Int)
(declare-fun cell_1_1 () Int)
(declare-fun cell_2_1 () Int)
(declare-fun cell_3_1 () Int)
(declare-fun cell_4_1 () Int)
(declare-fun cell_5_1 () Int)
(declare-fun cell_7_1 () Int)
(declare-fun cell_8_1 () Int)
(declare-fun cell_9_1 () Int)
(declare-fun cell_1_2 () Int)
(declare-fun cell_2_2 () Int)
(declare-fun cell_3_2 () Int)
(declare-fun cell_4_2 () Int)
(declare-fun cell_5_2 () Int)
(declare-fun cell_6_2 () Int)
(declare-fun cell_7_2 () Int)
(declare-fun cell_9_2 () Int)
(declare-fun cell_1_3 () Int)
(declare-fun cell_2_3 () Int)
(declare-fun cell_4_3 () Int)
(declare-fun cell_5_3 () Int)
(declare-fun cell_6_3 () Int)
(declare-fun cell_7_3 () Int)
(declare-fun cell_8_3 () Int)
(declare-fun cell_9_3 () Int)
(declare-fun cell_1_4 () Int)
(declare-fun cell_2_4 () Int)
(declare-fun cell_3_4 () Int)
(declare-fun cell_5_4 () Int)
(declare-fun cell_6_4 () Int)
(declare-fun cell_7_4 () Int)
(declare-fun cell_8_4 () Int)
(declare-fun cell_9_4 () Int)
(declare-fun cell_1_5 () Int)
(declare-fun cell_2_5 () Int)
(declare-fun cell_3_5 () Int)
(declare-fun cell_4_5 () Int)
(declare-fun cell_5_5 () Int)
(declare-fun cell_6_5 () Int)
(declare-fun cell_7_5 () Int)
(declare-fun cell_8_5 () Int)
(declare-fun cell_2_6 () Int)
(declare-fun cell_3_6 () Int)
(declare-fun cell_4_6 () Int)
(declare-fun cell_5_6 () Int)
(declare-fun cell_6_6 () Int)
(declare-fun cell_7_6 () Int)
(declare-fun cell_8_6 () Int)
(declare-fun cell_9_6 () Int)
(declare-fun cell_1_7 () Int)
(declare-fun cell_3_7 () Int)
(declare-fun cell_4_7 () Int)
(declare-fun cell_5_7 () Int)
(declare-fun cell_6_7 () Int)
(declare-fun cell_7_7 () Int)
(declare-fun cell_8_7 () Int)
(declare-fun cell_9_7 () Int)
(declare-fun cell_2_8 () Int)
(declare-fun cell_3_8 () Int)
(declare-fun cell_4_8 () Int)
(declare-fun cell_6_8 () Int)
(declare-fun cell_7_8 () Int)
(declare-fun cell_8_8 () Int)
(declare-fun cell_9_8 () Int)
(declare-fun cell_1_9 () Int)
(declare-fun cell_2_9 () Int)
(declare-fun cell_3_9 () Int)
(declare-fun cell_4_9 () Int)
(declare-fun cell_5_9 () Int)
(declare-fun cell_6_9 () Int)
(declare-fun cell_8_9 () Int)
(declare-fun cell_9_9 () Int)
(assert
 (= cell_1_6 1))
(assert
 (= cell_1_8 2))
(assert
 (= cell_2_7 1))
(assert
 (= cell_3_3 1))
(assert
 (= cell_4_4 1))
(assert
 (= cell_5_8 1))
(assert
 (= cell_6_1 1))
(assert
 (= cell_7_9 1))
(assert
 (= cell_8_2 1))
(assert
 (= cell_9_5 1))
(assert
 (let (($x3866 (= cell_1_1 9)))
 (let (($x1603 (= cell_1_1 8)))
 (let (($x3917 (= cell_1_1 7)))
 (let (($x2604 (= cell_1_1 6)))
 (let (($x5319 (= cell_1_1 5)))
 (let (($x2373 (= cell_1_1 4)))
 (let (($x4926 (= cell_1_1 3)))
 (let (($x913 (= cell_1_1 2)))
 (let (($x5545 (= cell_1_1 1)))
 (or $x5545 $x913 $x4926 $x2373 $x5319 $x2604 $x3917 $x1603 $x3866)))))))))))
(assert
 (let (($x6067 (= cell_2_1 9)))
 (let (($x474 (= cell_2_1 8)))
 (let (($x6330 (= cell_2_1 7)))
 (let (($x4093 (= cell_2_1 6)))
 (let (($x5267 (= cell_2_1 5)))
 (let (($x4553 (= cell_2_1 4)))
 (let (($x5344 (= cell_2_1 3)))
 (let (($x2485 (= cell_2_1 2)))
 (let (($x5317 (= cell_2_1 1)))
 (or $x5317 $x2485 $x5344 $x4553 $x5267 $x4093 $x6330 $x474 $x6067)))))))))))
(assert
 (let (($x158 (= cell_3_1 9)))
 (let (($x814 (= cell_3_1 8)))
 (let (($x406 (= cell_3_1 7)))
 (let (($x360 (= cell_3_1 6)))
 (let (($x6016 (= cell_3_1 5)))
 (let (($x4776 (= cell_3_1 4)))
 (let (($x524 (= cell_3_1 3)))
 (let (($x1643 (= cell_3_1 2)))
 (let (($x374 (= cell_3_1 1)))
 (or $x374 $x1643 $x524 $x4776 $x6016 $x360 $x406 $x814 $x158)))))))))))
(assert
 (let (($x598 (= cell_4_1 9)))
 (let (($x5543 (= cell_4_1 8)))
 (let (($x3952 (= cell_4_1 7)))
 (let (($x4319 (= cell_4_1 6)))
 (let (($x5731 (= cell_4_1 5)))
 (let (($x3552 (= cell_4_1 4)))
 (let (($x2936 (= cell_4_1 3)))
 (let (($x2210 (= cell_4_1 2)))
 (let (($x106 (= cell_4_1 1)))
 (or $x106 $x2210 $x2936 $x3552 $x5731 $x4319 $x3952 $x5543 $x598)))))))))))
(assert
 (let (($x41 (= cell_5_1 9)))
 (let (($x2954 (= cell_5_1 8)))
 (let (($x6060 (= cell_5_1 7)))
 (let (($x2778 (= cell_5_1 6)))
 (let (($x2054 (= cell_5_1 5)))
 (let (($x1034 (= cell_5_1 4)))
 (let (($x3790 (= cell_5_1 3)))
 (let (($x4826 (= cell_5_1 2)))
 (let (($x5571 (= cell_5_1 1)))
 (or $x5571 $x4826 $x3790 $x1034 $x2054 $x2778 $x6060 $x2954 $x41)))))))))))
(assert
 (let (($x4442 (= cell_6_1 1)))
 (or $x4442 (= cell_6_1 2) (= cell_6_1 3) (= cell_6_1 4) (= cell_6_1 5) (= cell_6_1 6) (= cell_6_1 7) (= cell_6_1 8) (= cell_6_1 9))))
(assert
 (let (($x938 (= cell_7_1 9)))
 (let (($x1078 (= cell_7_1 8)))
 (let (($x1509 (= cell_7_1 7)))
 (let (($x4389 (= cell_7_1 6)))
 (let (($x673 (= cell_7_1 5)))
 (let (($x4717 (= cell_7_1 4)))
 (let (($x3569 (= cell_7_1 3)))
 (let (($x5912 (= cell_7_1 2)))
 (let (($x5151 (= cell_7_1 1)))
 (or $x5151 $x5912 $x3569 $x4717 $x673 $x4389 $x1509 $x1078 $x938)))))))))))
(assert
 (let (($x3506 (= cell_8_1 9)))
 (let (($x1727 (= cell_8_1 8)))
 (let (($x1538 (= cell_8_1 7)))
 (let (($x4114 (= cell_8_1 6)))
 (let (($x2787 (= cell_8_1 5)))
 (let (($x675 (= cell_8_1 4)))
 (let (($x5884 (= cell_8_1 3)))
 (let (($x6168 (= cell_8_1 2)))
 (let (($x3757 (= cell_8_1 1)))
 (or $x3757 $x6168 $x5884 $x675 $x2787 $x4114 $x1538 $x1727 $x3506)))))))))))
(assert
 (let (($x3959 (= cell_9_1 9)))
 (let (($x2272 (= cell_9_1 8)))
 (let (($x70 (= cell_9_1 7)))
 (let (($x5676 (= cell_9_1 6)))
 (let (($x2136 (= cell_9_1 5)))
 (let (($x690 (= cell_9_1 4)))
 (let (($x1142 (= cell_9_1 3)))
 (let (($x1479 (= cell_9_1 2)))
 (let (($x277 (= cell_9_1 1)))
 (or $x277 $x1479 $x1142 $x690 $x2136 $x5676 $x70 $x2272 $x3959)))))))))))
(assert
 (let (($x2748 (= cell_1_2 9)))
 (let (($x6138 (= cell_1_2 8)))
 (let (($x4972 (= cell_1_2 7)))
 (let (($x3782 (= cell_1_2 6)))
 (let (($x204 (= cell_1_2 5)))
 (let (($x6176 (= cell_1_2 4)))
 (let (($x5430 (= cell_1_2 3)))
 (let (($x2593 (= cell_1_2 2)))
 (let (($x3626 (= cell_1_2 1)))
 (or $x3626 $x2593 $x5430 $x6176 $x204 $x3782 $x4972 $x6138 $x2748)))))))))))
(assert
 (let (($x5932 (= cell_2_2 9)))
 (let (($x5962 (= cell_2_2 8)))
 (let (($x3940 (= cell_2_2 7)))
 (let (($x2139 (= cell_2_2 6)))
 (let (($x175 (= cell_2_2 5)))
 (let (($x558 (= cell_2_2 4)))
 (let (($x4317 (= cell_2_2 3)))
 (let (($x5415 (= cell_2_2 2)))
 (let (($x5701 (= cell_2_2 1)))
 (or $x5701 $x5415 $x4317 $x558 $x175 $x2139 $x3940 $x5962 $x5932)))))))))))
(assert
 (let (($x6047 (= cell_3_2 9)))
 (let (($x6002 (= cell_3_2 8)))
 (let (($x1428 (= cell_3_2 7)))
 (let (($x4646 (= cell_3_2 6)))
 (let (($x3475 (= cell_3_2 5)))
 (let (($x2070 (= cell_3_2 4)))
 (let (($x1230 (= cell_3_2 3)))
 (let (($x1884 (= cell_3_2 2)))
 (let (($x3691 (= cell_3_2 1)))
 (or $x3691 $x1884 $x1230 $x2070 $x3475 $x4646 $x1428 $x6002 $x6047)))))))))))
(assert
 (let (($x3142 (= cell_4_2 9)))
 (let (($x4098 (= cell_4_2 8)))
 (let (($x980 (= cell_4_2 7)))
 (let (($x3701 (= cell_4_2 6)))
 (let (($x5507 (= cell_4_2 5)))
 (let (($x3827 (= cell_4_2 4)))
 (let (($x2773 (= cell_4_2 3)))
 (let (($x5362 (= cell_4_2 2)))
 (let (($x2145 (= cell_4_2 1)))
 (or $x2145 $x5362 $x2773 $x3827 $x5507 $x3701 $x980 $x4098 $x3142)))))))))))
(assert
 (let (($x1718 (= cell_5_2 9)))
 (let (($x5862 (= cell_5_2 8)))
 (let (($x1618 (= cell_5_2 7)))
 (let (($x777 (= cell_5_2 6)))
 (let (($x1394 (= cell_5_2 5)))
 (let (($x879 (= cell_5_2 4)))
 (let (($x5334 (= cell_5_2 3)))
 (let (($x5715 (= cell_5_2 2)))
 (let (($x2331 (= cell_5_2 1)))
 (or $x2331 $x5715 $x5334 $x879 $x1394 $x777 $x1618 $x5862 $x1718)))))))))))
(assert
 (let (($x5957 (= cell_6_2 9)))
 (let (($x6088 (= cell_6_2 8)))
 (let (($x3899 (= cell_6_2 7)))
 (let (($x3788 (= cell_6_2 6)))
 (let (($x5435 (= cell_6_2 5)))
 (let (($x4074 (= cell_6_2 4)))
 (let (($x6422 (= cell_6_2 3)))
 (let (($x547 (= cell_6_2 2)))
 (let (($x1338 (= cell_6_2 1)))
 (or $x1338 $x547 $x6422 $x4074 $x5435 $x3788 $x3899 $x6088 $x5957)))))))))))
(assert
 (let (($x4309 (= cell_7_2 9)))
 (let (($x6545 (= cell_7_2 8)))
 (let (($x3505 (= cell_7_2 7)))
 (let (($x798 (= cell_7_2 6)))
 (let (($x4094 (= cell_7_2 5)))
 (let (($x4620 (= cell_7_2 4)))
 (let (($x2017 (= cell_7_2 3)))
 (let (($x2450 (= cell_7_2 2)))
 (let (($x3836 (= cell_7_2 1)))
 (or $x3836 $x2450 $x2017 $x4620 $x4094 $x798 $x3505 $x6545 $x4309)))))))))))
(assert
 (let (($x9 (= cell_8_2 1)))
 (or $x9 (= cell_8_2 2) (= cell_8_2 3) (= cell_8_2 4) (= cell_8_2 5) (= cell_8_2 6) (= cell_8_2 7) (= cell_8_2 8) (= cell_8_2 9))))
(assert
 (let (($x2698 (= cell_9_2 9)))
 (let (($x3652 (= cell_9_2 8)))
 (let (($x5215 (= cell_9_2 7)))
 (let (($x631 (= cell_9_2 6)))
 (let (($x4247 (= cell_9_2 5)))
 (let (($x11 (= cell_9_2 4)))
 (let (($x1285 (= cell_9_2 3)))
 (let (($x6166 (= cell_9_2 2)))
 (let (($x1729 (= cell_9_2 1)))
 (or $x1729 $x6166 $x1285 $x11 $x4247 $x631 $x5215 $x3652 $x2698)))))))))))
(assert
 (let (($x3003 (= cell_1_3 9)))
 (let (($x6577 (= cell_1_3 8)))
 (let (($x3776 (= cell_1_3 7)))
 (let (($x3529 (= cell_1_3 6)))
 (let (($x668 (= cell_1_3 5)))
 (let (($x5209 (= cell_1_3 4)))
 (let (($x4421 (= cell_1_3 3)))
 (let (($x2481 (= cell_1_3 2)))
 (let (($x3858 (= cell_1_3 1)))
 (or $x3858 $x2481 $x4421 $x5209 $x668 $x3529 $x3776 $x6577 $x3003)))))))))))
(assert
 (let (($x3611 (= cell_2_3 9)))
 (let (($x1627 (= cell_2_3 8)))
 (let (($x4056 (= cell_2_3 7)))
 (let (($x5834 (= cell_2_3 6)))
 (let (($x4434 (= cell_2_3 5)))
 (let (($x572 (= cell_2_3 4)))
 (let (($x5462 (= cell_2_3 3)))
 (let (($x2034 (= cell_2_3 2)))
 (let (($x5375 (= cell_2_3 1)))
 (or $x5375 $x2034 $x5462 $x572 $x4434 $x5834 $x4056 $x1627 $x3611)))))))))))
(assert
 (let (($x4395 (= cell_3_3 1)))
 (or $x4395 (= cell_3_3 2) (= cell_3_3 3) (= cell_3_3 4) (= cell_3_3 5) (= cell_3_3 6) (= cell_3_3 7) (= cell_3_3 8) (= cell_3_3 9))))
(assert
 (let (($x2022 (= cell_4_3 9)))
 (let (($x4271 (= cell_4_3 8)))
 (let (($x1023 (= cell_4_3 7)))
 (let (($x4650 (= cell_4_3 6)))
 (let (($x3681 (= cell_4_3 5)))
 (let (($x5106 (= cell_4_3 4)))
 (let (($x5454 (= cell_4_3 3)))
 (let (($x5138 (= cell_4_3 2)))
 (let (($x4966 (= cell_4_3 1)))
 (or $x4966 $x5138 $x5454 $x5106 $x3681 $x4650 $x1023 $x4271 $x2022)))))))))))
(assert
 (let (($x1072 (= cell_5_3 9)))
 (let (($x4036 (= cell_5_3 8)))
 (let (($x1298 (= cell_5_3 7)))
 (let (($x4184 (= cell_5_3 6)))
 (let (($x1769 (= cell_5_3 5)))
 (let (($x4109 (= cell_5_3 4)))
 (let (($x5635 (= cell_5_3 3)))
 (let (($x3874 (= cell_5_3 2)))
 (let (($x935 (= cell_5_3 1)))
 (or $x935 $x3874 $x5635 $x4109 $x1769 $x4184 $x1298 $x4036 $x1072)))))))))))
(assert
 (let (($x4425 (= cell_6_3 2)))
 (let (($x4159 (= cell_6_3 1)))
 (or $x4159 $x4425 (= cell_6_3 3) (= cell_6_3 4) (= cell_6_3 5) (= cell_6_3 6) (= cell_6_3 7) (= cell_6_3 8) (= cell_6_3 9)))))
(assert
 (let (($x4731 (= cell_7_3 9)))
 (let (($x4077 (= cell_7_3 8)))
 (let (($x183 (= cell_7_3 7)))
 (let (($x4814 (= cell_7_3 6)))
 (let (($x5489 (= cell_7_3 5)))
 (let (($x3541 (= cell_7_3 4)))
 (let (($x2262 (= cell_7_3 3)))
 (let (($x3622 (= cell_7_3 2)))
 (let (($x1655 (= cell_7_3 1)))
 (or $x1655 $x3622 $x2262 $x3541 $x5489 $x4814 $x183 $x4077 $x4731)))))))))))
(assert
 (let (($x1293 (= cell_8_3 1)))
 (or $x1293 (= cell_8_3 2) (= cell_8_3 3) (= cell_8_3 4) (= cell_8_3 5) (= cell_8_3 6) (= cell_8_3 7) (= cell_8_3 8) (= cell_8_3 9))))
(assert
 (let (($x3695 (= cell_9_3 9)))
 (let (($x3738 (= cell_9_3 8)))
 (let (($x5845 (= cell_9_3 7)))
 (let (($x5953 (= cell_9_3 6)))
 (let (($x1122 (= cell_9_3 5)))
 (let (($x347 (= cell_9_3 4)))
 (let (($x5428 (= cell_9_3 3)))
 (let (($x4835 (= cell_9_3 2)))
 (let (($x2458 (= cell_9_3 1)))
 (or $x2458 $x4835 $x5428 $x347 $x1122 $x5953 $x5845 $x3738 $x3695)))))))))))
(assert
 (let (($x5536 (= cell_1_4 9)))
 (let (($x4592 (= cell_1_4 8)))
 (let (($x480 (= cell_1_4 7)))
 (let (($x2502 (= cell_1_4 6)))
 (let (($x1663 (= cell_1_4 5)))
 (let (($x2367 (= cell_1_4 4)))
 (let (($x624 (= cell_1_4 3)))
 (let (($x6165 (= cell_1_4 2)))
 (let (($x1712 (= cell_1_4 1)))
 (or $x1712 $x6165 $x624 $x2367 $x1663 $x2502 $x480 $x4592 $x5536)))))))))))
(assert
 (let (($x4718 (= cell_2_4 9)))
 (let (($x1923 (= cell_2_4 8)))
 (let (($x5354 (= cell_2_4 7)))
 (let (($x5575 (= cell_2_4 6)))
 (let (($x3813 (= cell_2_4 5)))
 (let (($x1662 (= cell_2_4 4)))
 (let (($x3999 (= cell_2_4 3)))
 (let (($x5095 (= cell_2_4 2)))
 (let (($x3307 (= cell_2_4 1)))
 (or $x3307 $x5095 $x3999 $x1662 $x3813 $x5575 $x5354 $x1923 $x4718)))))))))))
(assert
 (let (($x4816 (= cell_3_4 9)))
 (let (($x1179 (= cell_3_4 8)))
 (let (($x4224 (= cell_3_4 7)))
 (let (($x6194 (= cell_3_4 6)))
 (let (($x3132 (= cell_3_4 5)))
 (let (($x4582 (= cell_3_4 4)))
 (let (($x2497 (= cell_3_4 3)))
 (let (($x4464 (= cell_3_4 2)))
 (let (($x1872 (= cell_3_4 1)))
 (or $x1872 $x4464 $x2497 $x4582 $x3132 $x6194 $x4224 $x1179 $x4816)))))))))))
(assert
 (let (($x6335 (= cell_4_4 1)))
 (or $x6335 (= cell_4_4 2) (= cell_4_4 3) (= cell_4_4 4) (= cell_4_4 5) (= cell_4_4 6) (= cell_4_4 7) (= cell_4_4 8) (= cell_4_4 9))))
(assert
 (let (($x448 (= cell_5_4 9)))
 (let (($x1058 (= cell_5_4 8)))
 (let (($x6531 (= cell_5_4 7)))
 (let (($x1296 (= cell_5_4 6)))
 (let (($x5583 (= cell_5_4 5)))
 (let (($x1107 (= cell_5_4 4)))
 (let (($x4291 (= cell_5_4 3)))
 (let (($x3038 (= cell_5_4 2)))
 (let (($x4118 (= cell_5_4 1)))
 (or $x4118 $x3038 $x4291 $x1107 $x5583 $x1296 $x6531 $x1058 $x448)))))))))))
(assert
 (let (($x29 (= cell_6_4 1)))
 (or $x29 (= cell_6_4 2) (= cell_6_4 3) (= cell_6_4 4) (= cell_6_4 5) (= cell_6_4 6) (= cell_6_4 7) (= cell_6_4 8) (= cell_6_4 9))))
(assert
 (let (($x1171 (= cell_7_4 9)))
 (let (($x99 (= cell_7_4 8)))
 (let (($x4487 (= cell_7_4 7)))
 (let (($x1711 (= cell_7_4 6)))
 (let (($x4572 (= cell_7_4 5)))
 (let (($x4017 (= cell_7_4 4)))
 (let (($x4258 (= cell_7_4 3)))
 (let (($x1197 (= cell_7_4 2)))
 (let (($x5671 (= cell_7_4 1)))
 (or $x5671 $x1197 $x4258 $x4017 $x4572 $x1711 $x4487 $x99 $x1171)))))))))))
(assert
 (let (($x5295 (= cell_8_4 9)))
 (let (($x2064 (= cell_8_4 8)))
 (let (($x1247 (= cell_8_4 7)))
 (let (($x5323 (= cell_8_4 6)))
 (let (($x628 (= cell_8_4 5)))
 (let (($x113 (= cell_8_4 4)))
 (let (($x40 (= cell_8_4 3)))
 (let (($x5159 (= cell_8_4 2)))
 (let (($x855 (= cell_8_4 1)))
 (or $x855 $x5159 $x40 $x113 $x628 $x5323 $x1247 $x2064 $x5295)))))))))))
(assert
 (let (($x1774 (= cell_9_4 9)))
 (let (($x2493 (= cell_9_4 8)))
 (let (($x5234 (= cell_9_4 7)))
 (let (($x3804 (= cell_9_4 6)))
 (let (($x1374 (= cell_9_4 5)))
 (let (($x3577 (= cell_9_4 4)))
 (let (($x608 (= cell_9_4 3)))
 (let (($x1154 (= cell_9_4 2)))
 (let (($x3781 (= cell_9_4 1)))
 (or $x3781 $x1154 $x608 $x3577 $x1374 $x3804 $x5234 $x2493 $x1774)))))))))))
(assert
 (let (($x1167 (= cell_1_5 9)))
 (let (($x3287 (= cell_1_5 8)))
 (let (($x3761 (= cell_1_5 7)))
 (let (($x3728 (= cell_1_5 6)))
 (let (($x4819 (= cell_1_5 5)))
 (let (($x4213 (= cell_1_5 4)))
 (let (($x2068 (= cell_1_5 3)))
 (let (($x466 (= cell_1_5 2)))
 (let (($x1623 (= cell_1_5 1)))
 (or $x1623 $x466 $x2068 $x4213 $x4819 $x3728 $x3761 $x3287 $x1167)))))))))))
(assert
 (let (($x5906 (= cell_2_5 9)))
 (let (($x3578 (= cell_2_5 8)))
 (let (($x609 (= cell_2_5 7)))
 (let (($x3875 (= cell_2_5 6)))
 (let (($x1185 (= cell_2_5 5)))
 (let (($x2419 (= cell_2_5 4)))
 (let (($x3807 (= cell_2_5 3)))
 (let (($x6354 (= cell_2_5 2)))
 (let (($x3449 (= cell_2_5 1)))
 (or $x3449 $x6354 $x3807 $x2419 $x1185 $x3875 $x609 $x3578 $x5906)))))))))))
(assert
 (let (($x369 (= cell_3_5 9)))
 (let (($x4433 (= cell_3_5 8)))
 (let (($x6220 (= cell_3_5 7)))
 (let (($x4991 (= cell_3_5 6)))
 (let (($x3688 (= cell_3_5 5)))
 (let (($x1589 (= cell_3_5 4)))
 (let (($x4100 (= cell_3_5 3)))
 (let (($x1725 (= cell_3_5 2)))
 (let (($x5174 (= cell_3_5 1)))
 (or $x5174 $x1725 $x4100 $x1589 $x3688 $x4991 $x6220 $x4433 $x369)))))))))))
(assert
 (let (($x3786 (= cell_4_5 9)))
 (let (($x5193 (= cell_4_5 8)))
 (let (($x750 (= cell_4_5 7)))
 (let (($x6204 (= cell_4_5 6)))
 (let (($x2560 (= cell_4_5 5)))
 (let (($x2536 (= cell_4_5 4)))
 (let (($x4877 (= cell_4_5 3)))
 (let (($x1448 (= cell_4_5 2)))
 (let (($x1580 (= cell_4_5 1)))
 (or $x1580 $x1448 $x4877 $x2536 $x2560 $x6204 $x750 $x5193 $x3786)))))))))))
(assert
 (let (($x4391 (= cell_5_5 9)))
 (let (($x5155 (= cell_5_5 8)))
 (let (($x3469 (= cell_5_5 7)))
 (let (($x2216 (= cell_5_5 6)))
 (let (($x4119 (= cell_5_5 5)))
 (let (($x5625 (= cell_5_5 4)))
 (let (($x1659 (= cell_5_5 3)))
 (let (($x1424 (= cell_5_5 2)))
 (let (($x2050 (= cell_5_5 1)))
 (or $x2050 $x1424 $x1659 $x5625 $x4119 $x2216 $x3469 $x5155 $x4391)))))))))))
(assert
 (let (($x3489 (= cell_6_5 9)))
 (let (($x268 (= cell_6_5 8)))
 (let (($x4430 (= cell_6_5 7)))
 (let (($x2410 (= cell_6_5 6)))
 (let (($x2606 (= cell_6_5 5)))
 (let (($x4645 (= cell_6_5 4)))
 (let (($x5556 (= cell_6_5 3)))
 (let (($x5791 (= cell_6_5 2)))
 (let (($x2612 (= cell_6_5 1)))
 (or $x2612 $x5791 $x5556 $x4645 $x2606 $x2410 $x4430 $x268 $x3489)))))))))))
(assert
 (let (($x2853 (= cell_7_5 9)))
 (let (($x3703 (= cell_7_5 8)))
 (let (($x3313 (= cell_7_5 7)))
 (let (($x1206 (= cell_7_5 6)))
 (let (($x747 (= cell_7_5 5)))
 (let (($x1742 (= cell_7_5 4)))
 (let (($x4565 (= cell_7_5 3)))
 (let (($x2455 (= cell_7_5 2)))
 (let (($x1096 (= cell_7_5 1)))
 (or $x1096 $x2455 $x4565 $x1742 $x747 $x1206 $x3313 $x3703 $x2853)))))))))))
(assert
 (let (($x4148 (= cell_8_5 9)))
 (let (($x4483 (= cell_8_5 8)))
 (let (($x1719 (= cell_8_5 7)))
 (let (($x3812 (= cell_8_5 6)))
 (let (($x2906 (= cell_8_5 5)))
 (let (($x4978 (= cell_8_5 4)))
 (let (($x4129 (= cell_8_5 3)))
 (let (($x4492 (= cell_8_5 2)))
 (let (($x1392 (= cell_8_5 1)))
 (or $x1392 $x4492 $x4129 $x4978 $x2906 $x3812 $x1719 $x4483 $x4148)))))))))))
(assert
 (let (($x2754 (= cell_9_5 1)))
 (or $x2754 (= cell_9_5 2) (= cell_9_5 3) (= cell_9_5 4) (= cell_9_5 5) (= cell_9_5 6) (= cell_9_5 7) (= cell_9_5 8) (= cell_9_5 9))))
(assert
 (let (($x4566 (= cell_1_6 1)))
 (or $x4566 (= cell_1_6 2) (= cell_1_6 3) (= cell_1_6 4) (= cell_1_6 5) (= cell_1_6 6) (= cell_1_6 7) (= cell_1_6 8) (= cell_1_6 9))))
(assert
 (let (($x4444 (= cell_2_6 9)))
 (let (($x6160 (= cell_2_6 8)))
 (let (($x384 (= cell_2_6 7)))
 (let (($x2524 (= cell_2_6 6)))
 (let (($x4000 (= cell_2_6 5)))
 (let (($x5872 (= cell_2_6 4)))
 (let (($x1014 (= cell_2_6 3)))
 (let (($x4423 (= cell_2_6 2)))
 (let (($x2887 (= cell_2_6 1)))
 (or $x2887 $x4423 $x1014 $x5872 $x4000 $x2524 $x384 $x6160 $x4444)))))))))))
(assert
 (let (($x3774 (= cell_3_6 2)))
 (let (($x5409 (= cell_3_6 1)))
 (or $x5409 $x3774 (= cell_3_6 3) (= cell_3_6 4) (= cell_3_6 5) (= cell_3_6 6) (= cell_3_6 7) (= cell_3_6 8) (= cell_3_6 9)))))
(assert
 (let (($x1496 (= cell_4_6 1)))
 (or $x1496 (= cell_4_6 2) (= cell_4_6 3) (= cell_4_6 4) (= cell_4_6 5) (= cell_4_6 6) (= cell_4_6 7) (= cell_4_6 8) (= cell_4_6 9))))
(assert
 (let (($x1218 (= cell_5_6 9)))
 (let (($x653 (= cell_5_6 8)))
 (let (($x2725 (= cell_5_6 7)))
 (let (($x6319 (= cell_5_6 6)))
 (let (($x6942 (= cell_5_6 5)))
 (let (($x163 (= cell_5_6 4)))
 (let (($x2806 (= cell_5_6 3)))
 (let (($x243 (= cell_5_6 2)))
 (let (($x4699 (= cell_5_6 1)))
 (or $x4699 $x243 $x2806 $x163 $x6942 $x6319 $x2725 $x653 $x1218)))))))))))
(assert
 (let (($x3028 (= cell_6_6 1)))
 (or $x3028 (= cell_6_6 2) (= cell_6_6 3) (= cell_6_6 4) (= cell_6_6 5) (= cell_6_6 6) (= cell_6_6 7) (= cell_6_6 8) (= cell_6_6 9))))
(assert
 (let (($x5077 (= cell_7_6 9)))
 (let (($x3156 (= cell_7_6 8)))
 (let (($x2290 (= cell_7_6 7)))
 (let (($x2615 (= cell_7_6 6)))
 (let (($x1463 (= cell_7_6 5)))
 (let (($x5194 (= cell_7_6 4)))
 (let (($x6051 (= cell_7_6 3)))
 (let (($x3025 (= cell_7_6 2)))
 (let (($x4802 (= cell_7_6 1)))
 (or $x4802 $x3025 $x6051 $x5194 $x1463 $x2615 $x2290 $x3156 $x5077)))))))))))
(assert
 (let (($x3857 (= cell_8_6 9)))
 (let (($x792 (= cell_8_6 8)))
 (let (($x2504 (= cell_8_6 7)))
 (let (($x4548 (= cell_8_6 6)))
 (let (($x3895 (= cell_8_6 5)))
 (let (($x1347 (= cell_8_6 4)))
 (let (($x3264 (= cell_8_6 3)))
 (let (($x5190 (= cell_8_6 2)))
 (let (($x5256 (= cell_8_6 1)))
 (or $x5256 $x5190 $x3264 $x1347 $x3895 $x4548 $x2504 $x792 $x3857)))))))))))
(assert
 (let (($x4497 (= cell_9_6 1)))
 (or $x4497 (= cell_9_6 2) (= cell_9_6 3) (= cell_9_6 4) (= cell_9_6 5) (= cell_9_6 6) (= cell_9_6 7) (= cell_9_6 8) (= cell_9_6 9))))
(assert
 (let (($x3168 (= cell_1_7 9)))
 (let (($x6196 (= cell_1_7 8)))
 (let (($x1772 (= cell_1_7 7)))
 (let (($x4564 (= cell_1_7 6)))
 (let (($x3698 (= cell_1_7 5)))
 (let (($x2223 (= cell_1_7 4)))
 (let (($x1796 (= cell_1_7 3)))
 (let (($x5604 (= cell_1_7 2)))
 (let (($x3350 (= cell_1_7 1)))
 (or $x3350 $x5604 $x1796 $x2223 $x3698 $x4564 $x1772 $x6196 $x3168)))))))))))
(assert
 (let (($x1012 (= cell_2_7 1)))
 (or $x1012 (= cell_2_7 2) (= cell_2_7 3) (= cell_2_7 4) (= cell_2_7 5) (= cell_2_7 6) (= cell_2_7 7) (= cell_2_7 8) (= cell_2_7 9))))
(assert
 (let (($x4458 (= cell_3_7 2)))
 (let (($x1411 (= cell_3_7 1)))
 (or $x1411 $x4458 (= cell_3_7 3) (= cell_3_7 4) (= cell_3_7 5) (= cell_3_7 6) (= cell_3_7 7) (= cell_3_7 8) (= cell_3_7 9)))))
(assert
 (let (($x812 (= cell_4_7 9)))
 (let (($x205 (= cell_4_7 8)))
 (let (($x4623 (= cell_4_7 7)))
 (let (($x1139 (= cell_4_7 6)))
 (let (($x4150 (= cell_4_7 5)))
 (let (($x5455 (= cell_4_7 4)))
 (let (($x4310 (= cell_4_7 3)))
 (let (($x2553 (= cell_4_7 2)))
 (let (($x601 (= cell_4_7 1)))
 (or $x601 $x2553 $x4310 $x5455 $x4150 $x1139 $x4623 $x205 $x812)))))))))))
(assert
 (let (($x4383 (= cell_5_7 9)))
 (let (($x3696 (= cell_5_7 8)))
 (let (($x1349 (= cell_5_7 7)))
 (let (($x4580 (= cell_5_7 6)))
 (let (($x345 (= cell_5_7 5)))
 (let (($x5744 (= cell_5_7 4)))
 (let (($x4020 (= cell_5_7 3)))
 (let (($x816 (= cell_5_7 2)))
 (let (($x1294 (= cell_5_7 1)))
 (or $x1294 $x816 $x4020 $x5744 $x345 $x4580 $x1349 $x3696 $x4383)))))))))))
(assert
 (let (($x2320 (= cell_6_7 1)))
 (or $x2320 (= cell_6_7 2) (= cell_6_7 3) (= cell_6_7 4) (= cell_6_7 5) (= cell_6_7 6) (= cell_6_7 7) (= cell_6_7 8) (= cell_6_7 9))))
(assert
 (let (($x1605 (= cell_7_7 9)))
 (let (($x6347 (= cell_7_7 8)))
 (let (($x5040 (= cell_7_7 7)))
 (let (($x6322 (= cell_7_7 6)))
 (let (($x1128 (= cell_7_7 5)))
 (let (($x4225 (= cell_7_7 4)))
 (let (($x2305 (= cell_7_7 3)))
 (let (($x4155 (= cell_7_7 2)))
 (let (($x1039 (= cell_7_7 1)))
 (or $x1039 $x4155 $x2305 $x4225 $x1128 $x6322 $x5040 $x6347 $x1605)))))))))))
(assert
 (let (($x3490 (= cell_8_7 1)))
 (or $x3490 (= cell_8_7 2) (= cell_8_7 3) (= cell_8_7 4) (= cell_8_7 5) (= cell_8_7 6) (= cell_8_7 7) (= cell_8_7 8) (= cell_8_7 9))))
(assert
 (let (($x4405 (= cell_9_7 1)))
 (or $x4405 (= cell_9_7 2) (= cell_9_7 3) (= cell_9_7 4) (= cell_9_7 5) (= cell_9_7 6) (= cell_9_7 7) (= cell_9_7 8) (= cell_9_7 9))))
(assert
 (let (($x1905 (= cell_1_8 2)))
 (or (= cell_1_8 1) $x1905 (= cell_1_8 3) (= cell_1_8 4) (= cell_1_8 5) (= cell_1_8 6) (= cell_1_8 7) (= cell_1_8 8) (= cell_1_8 9))))
(assert
 (let (($x4632 (= cell_2_8 9)))
 (let (($x4021 (= cell_2_8 8)))
 (let (($x3656 (= cell_2_8 7)))
 (let (($x4736 (= cell_2_8 6)))
 (let (($x5441 (= cell_2_8 5)))
 (let (($x5432 (= cell_2_8 4)))
 (let (($x151 (= cell_2_8 3)))
 (let (($x6558 (= cell_2_8 2)))
 (let (($x810 (= cell_2_8 1)))
 (or $x810 $x6558 $x151 $x5432 $x5441 $x4736 $x3656 $x4021 $x4632)))))))))))
(assert
 (let (($x3245 (= cell_3_8 9)))
 (let (($x3606 (= cell_3_8 8)))
 (let (($x894 (= cell_3_8 7)))
 (let (($x4232 (= cell_3_8 6)))
 (let (($x3877 (= cell_3_8 5)))
 (let (($x797 (= cell_3_8 4)))
 (let (($x4899 (= cell_3_8 3)))
 (let (($x1978 (= cell_3_8 2)))
 (let (($x1321 (= cell_3_8 1)))
 (or $x1321 $x1978 $x4899 $x797 $x3877 $x4232 $x894 $x3606 $x3245)))))))))))
(assert
 (let (($x6446 (= cell_4_8 9)))
 (let (($x6456 (= cell_4_8 8)))
 (let (($x3017 (= cell_4_8 7)))
 (let (($x5532 (= cell_4_8 6)))
 (let (($x800 (= cell_4_8 5)))
 (let (($x4331 (= cell_4_8 4)))
 (let (($x5091 (= cell_4_8 3)))
 (let (($x3249 (= cell_4_8 2)))
 (let (($x1061 (= cell_4_8 1)))
 (or $x1061 $x3249 $x5091 $x4331 $x800 $x5532 $x3017 $x6456 $x6446)))))))))))
(assert
 (let (($x1649 (= cell_5_8 1)))
 (or $x1649 (= cell_5_8 2) (= cell_5_8 3) (= cell_5_8 4) (= cell_5_8 5) (= cell_5_8 6) (= cell_5_8 7) (= cell_5_8 8) (= cell_5_8 9))))
(assert
 (let (($x4578 (= cell_6_8 2)))
 (let (($x3925 (= cell_6_8 1)))
 (or $x3925 $x4578 (= cell_6_8 3) (= cell_6_8 4) (= cell_6_8 5) (= cell_6_8 6) (= cell_6_8 7) (= cell_6_8 8) (= cell_6_8 9)))))
(assert
 (let (($x2506 (= cell_7_8 9)))
 (let (($x6364 (= cell_7_8 8)))
 (let (($x500 (= cell_7_8 7)))
 (let (($x6582 (= cell_7_8 6)))
 (let (($x5663 (= cell_7_8 5)))
 (let (($x3241 (= cell_7_8 4)))
 (let (($x6426 (= cell_7_8 3)))
 (let (($x4057 (= cell_7_8 2)))
 (let (($x3808 (= cell_7_8 1)))
 (or $x3808 $x4057 $x6426 $x3241 $x5663 $x6582 $x500 $x6364 $x2506)))))))))))
(assert
 (let (($x5413 (= cell_8_8 2)))
 (let (($x5279 (= cell_8_8 1)))
 (or $x5279 $x5413 (= cell_8_8 3) (= cell_8_8 4) (= cell_8_8 5) (= cell_8_8 6) (= cell_8_8 7) (= cell_8_8 8) (= cell_8_8 9)))))
(assert
 (let (($x6048 (= cell_9_8 2)))
 (let (($x3942 (= cell_9_8 1)))
 (or $x3942 $x6048 (= cell_9_8 3) (= cell_9_8 4) (= cell_9_8 5) (= cell_9_8 6) (= cell_9_8 7) (= cell_9_8 8) (= cell_9_8 9)))))
(assert
 (let (($x4516 (= cell_1_9 9)))
 (let (($x852 (= cell_1_9 8)))
 (let (($x6307 (= cell_1_9 7)))
 (let (($x6439 (= cell_1_9 6)))
 (let (($x3775 (= cell_1_9 5)))
 (let (($x1924 (= cell_1_9 4)))
 (let (($x665 (= cell_1_9 3)))
 (let (($x4606 (= cell_1_9 2)))
 (let (($x2174 (= cell_1_9 1)))
 (or $x2174 $x4606 $x665 $x1924 $x3775 $x6439 $x6307 $x852 $x4516)))))))))))
(assert
 (let (($x3968 (= cell_2_9 9)))
 (let (($x1016 (= cell_2_9 8)))
 (let (($x5187 (= cell_2_9 7)))
 (let (($x3762 (= cell_2_9 6)))
 (let (($x1265 (= cell_2_9 5)))
 (let (($x3487 (= cell_2_9 4)))
 (let (($x2381 (= cell_2_9 3)))
 (let (($x393 (= cell_2_9 2)))
 (let (($x2742 (= cell_2_9 1)))
 (or $x2742 $x393 $x2381 $x3487 $x1265 $x3762 $x5187 $x1016 $x3968)))))))))))
(assert
 (let (($x1329 (= cell_3_9 9)))
 (let (($x3365 (= cell_3_9 8)))
 (let (($x4130 (= cell_3_9 7)))
 (let (($x3096 (= cell_3_9 6)))
 (let (($x819 (= cell_3_9 5)))
 (let (($x5196 (= cell_3_9 4)))
 (let (($x1746 (= cell_3_9 3)))
 (let (($x5680 (= cell_3_9 2)))
 (let (($x4088 (= cell_3_9 1)))
 (or $x4088 $x5680 $x1746 $x5196 $x819 $x3096 $x4130 $x3365 $x1329)))))))))))
(assert
 (let (($x1181 (= cell_4_9 9)))
 (let (($x2959 (= cell_4_9 8)))
 (let (($x3882 (= cell_4_9 7)))
 (let (($x3983 (= cell_4_9 6)))
 (let (($x285 (= cell_4_9 5)))
 (let (($x4277 (= cell_4_9 4)))
 (let (($x2563 (= cell_4_9 3)))
 (let (($x4469 (= cell_4_9 2)))
 (let (($x366 (= cell_4_9 1)))
 (or $x366 $x4469 $x2563 $x4277 $x285 $x3983 $x3882 $x2959 $x1181)))))))))))
(assert
 (let (($x3824 (= cell_5_9 9)))
 (let (($x2281 (= cell_5_9 8)))
 (let (($x3914 (= cell_5_9 7)))
 (let (($x973 (= cell_5_9 6)))
 (let (($x3766 (= cell_5_9 5)))
 (let (($x5770 (= cell_5_9 4)))
 (let (($x4014 (= cell_5_9 3)))
 (let (($x835 (= cell_5_9 2)))
 (let (($x1542 (= cell_5_9 1)))
 (or $x1542 $x835 $x4014 $x5770 $x3766 $x973 $x3914 $x2281 $x3824)))))))))))
(assert
 (let (($x410 (= cell_6_9 9)))
 (let (($x4746 (= cell_6_9 8)))
 (let (($x6045 (= cell_6_9 7)))
 (let (($x3995 (= cell_6_9 6)))
 (let (($x3838 (= cell_6_9 5)))
 (let (($x6355 (= cell_6_9 4)))
 (let (($x3856 (= cell_6_9 3)))
 (let (($x3227 (= cell_6_9 2)))
 (let (($x3916 (= cell_6_9 1)))
 (or $x3916 $x3227 $x3856 $x6355 $x3838 $x3995 $x6045 $x4746 $x410)))))))))))
(assert
 (let (($x4254 (= cell_7_9 1)))
 (or $x4254 (= cell_7_9 2) (= cell_7_9 3) (= cell_7_9 4) (= cell_7_9 5) (= cell_7_9 6) (= cell_7_9 7) (= cell_7_9 8) (= cell_7_9 9))))
(assert
 (let (($x117 (= cell_8_9 1)))
 (or $x117 (= cell_8_9 2) (= cell_8_9 3) (= cell_8_9 4) (= cell_8_9 5) (= cell_8_9 6) (= cell_8_9 7) (= cell_8_9 8) (= cell_8_9 9))))
(assert
 (let (($x4888 (= cell_9_9 1)))
 (or $x4888 (= cell_9_9 2) (= cell_9_9 3) (= cell_9_9 4) (= cell_9_9 5) (= cell_9_9 6) (= cell_9_9 7) (= cell_9_9 8) (= cell_9_9 9))))
(assert
 (and (distinct cell_1_1 cell_1_2 cell_1_3 cell_1_4 cell_1_5 cell_1_6 cell_1_7 cell_1_8 cell_1_9) true))
(assert
 (and (distinct cell_2_1 cell_2_2 cell_2_3 cell_2_4 cell_2_5 cell_2_6 cell_2_7 cell_2_8 cell_2_9) true))
(assert
 (and (distinct cell_3_1 cell_3_2 cell_3_3 cell_3_4 cell_3_5 cell_3_6 cell_3_7 cell_3_8 cell_3_9) true))
(assert
 (and (distinct cell_4_1 cell_4_2 cell_4_3 cell_4_4 cell_4_5 cell_4_6 cell_4_7 cell_4_8 cell_4_9) true))
(assert
 (and (distinct cell_5_1 cell_5_2 cell_5_3 cell_5_4 cell_5_5 cell_5_6 cell_5_7 cell_5_8 cell_5_9) true))
(assert
 (and (distinct cell_6_1 cell_6_2 cell_6_3 cell_6_4 cell_6_5 cell_6_6 cell_6_7 cell_6_8 cell_6_9) true))
(assert
 (and (distinct cell_7_1 cell_7_2 cell_7_3 cell_7_4 cell_7_5 cell_7_6 cell_7_7 cell_7_8 cell_7_9) true))
(assert
 (and (distinct cell_8_1 cell_8_2 cell_8_3 cell_8_4 cell_8_5 cell_8_6 cell_8_7 cell_8_8 cell_8_9) true))
(assert
 (and (distinct cell_9_1 cell_9_2 cell_9_3 cell_9_4 cell_9_5 cell_9_6 cell_9_7 cell_9_8 cell_9_9) true))
(assert
 (and (distinct cell_1_1 cell_2_1 cell_3_1 cell_4_1 cell_5_1 cell_6_1 cell_7_1 cell_8_1 cell_9_1) true))
(assert
 (and (distinct cell_1_2 cell_2_2 cell_3_2 cell_4_2 cell_5_2 cell_6_2 cell_7_2 cell_8_2 cell_9_2) true))
(assert
 (and (distinct cell_1_3 cell_2_3 cell_3_3 cell_4_3 cell_5_3 cell_6_3 cell_7_3 cell_8_3 cell_9_3) true))
(assert
 (and (distinct cell_1_4 cell_2_4 cell_3_4 cell_4_4 cell_5_4 cell_6_4 cell_7_4 cell_8_4 cell_9_4) true))
(assert
 (and (distinct cell_1_5 cell_2_5 cell_3_5 cell_4_5 cell_5_5 cell_6_5 cell_7_5 cell_8_5 cell_9_5) true))
(assert
 (and (distinct cell_1_6 cell_2_6 cell_3_6 cell_4_6 cell_5_6 cell_6_6 cell_7_6 cell_8_6 cell_9_6) true))
(assert
 (and (distinct cell_1_7 cell_2_7 cell_3_7 cell_4_7 cell_5_7 cell_6_7 cell_7_7 cell_8_7 cell_9_7) true))
(assert
 (and (distinct cell_1_8 cell_2_8 cell_3_8 cell_4_8 cell_5_8 cell_6_8 cell_7_8 cell_8_8 cell_9_8) true))
(assert
 (and (distinct cell_1_9 cell_2_9 cell_3_9 cell_4_9 cell_5_9 cell_6_9 cell_7_9 cell_8_9 cell_9_9) true))
(assert
 (and (distinct cell_1_1 cell_1_2 cell_1_3 cell_2_1 cell_2_2 cell_2_3 cell_3_1 cell_3_2 cell_3_3) true))
(assert
 (and (distinct cell_1_4 cell_1_5 cell_1_6 cell_2_4 cell_2_5 cell_2_6 cell_3_4 cell_3_5 cell_3_6) true))
(assert
 (and (distinct cell_1_7 cell_1_8 cell_1_9 cell_2_7 cell_2_8 cell_2_9 cell_3_7 cell_3_8 cell_3_9) true))
(assert
 (and (distinct cell_4_1 cell_4_2 cell_4_3 cell_5_1 cell_5_2 cell_5_3 cell_6_1 cell_6_2 cell_6_3) true))
(assert
 (and (distinct cell_4_4 cell_4_5 cell_4_6 cell_5_4 cell_5_5 cell_5_6 cell_6_4 cell_6_5 cell_6_6) true))
(assert
 (and (distinct cell_4_7 cell_4_8 cell_4_9 cell_5_7 cell_5_8 cell_5_9 cell_6_7 cell_6_8 cell_6_9) true))
(assert
 (and (distinct cell_7_1 cell_7_2 cell_7_3 cell_8_1 cell_8_2 cell_8_3 cell_9_1 cell_9_2 cell_9_3) true))
(assert
 (and (distinct cell_7_4 cell_7_5 cell_7_6 cell_8_4 cell_8_5 cell_8_6 cell_9_4 cell_9_5 cell_9_6) true))
(assert
 (and (distinct cell_7_7 cell_7_8 cell_7_9 cell_8_7 cell_8_8 cell_8_9 cell_9_7 cell_9_8 cell_9_9) true))
(assert
 (let (($x3057 (and (distinct cell_5_9 cell_6_8 cell_7_7 cell_8_6) true)))
 (let (($x5562 (and (distinct cell_2_9 cell_3_8 cell_4_7 cell_5_6 cell_6_5 cell_7_4 cell_8_3 cell_9_2) true)))
 (let (($x4541 (and (distinct cell_1_8 cell_2_7 cell_3_6 cell_4_5 cell_5_4 cell_6_3 cell_7_2 cell_8_1) true)))
 (let (($x3981 (and (distinct cell_1_5 cell_2_4 cell_3_3 cell_4_2) true)))
 (let (($x825 (and (distinct cell_5_1 cell_6_2 cell_7_3 cell_8_4) true)))
 (let (($x6056 (and (distinct cell_2_1 cell_3_2 cell_4_3 cell_5_4 cell_6_5 cell_7_6 cell_8_7 cell_9_8) true)))
 (let (($x3818 (and (distinct cell_1_2 cell_2_3 cell_3_4 cell_4_5 cell_5_6 cell_6_7 cell_7_8 cell_8_9) true)))
 (let (($x2195 (and (distinct cell_1_5 cell_2_6 cell_3_7 cell_4_8) true)))
 (and $x2195 $x3818 $x6056 $x825 $x3981 $x4541 $x5562 $x3057))))))))))
(assert
 (and (distinct cell_2_3 2) true))
(check-sat)
